NAME: instance_262
TYPE: TSP
DIMENSION: 20
EDGE_WEIGHT_TYPE: EUC_2D
NODE_COORD_SECTION
0 32.92 96.22
1 70.50 38.07
2 89.16 7.52
3 54.49 37.85
4 16.42 63.89
5 42.00 88.33
6 11.74 36.72
7 27.73 84.25
8 53.28 8.27
9 0.80 97.07
10 12.31 54.26
11 82.94 85.97
12 90.56 35.18
13 26.60 39.94
14 95.15 21.60
15 20.61 44.64
16 4.03 94.64
17 16.93 96.75
18 51.18 67.29
19 10.62 11.64
EOF
